W=5;
H=5;

MAX_TIME=19;
MAX_TRACKS=9;

TARGET=(5,5);

TRAINS=[(1,2,RIGHT),(4,1,TOP)];
DECOYS=[];

INIT_POS=[
(1,2,STRAIGHT_RL),
(1,3,STRAIGHT_RL),
(3,2,STRAIGHT_RL),
(3,3,STRAIGHT_RL),
(4,1,STRAIGHT_TD),
(5,2,STRAIGHT_RL),
(5,3,STRAIGHT_RL),
(5,4,STRAIGHT_RL),
(5,5,STRAIGHT_RL),
(4,3,ROCK),
];
TUNNEL_PAIRS=[];

GATES=[];
ACTIVATIONS=[];

DSWITCHES=[];

STATIONS=[
  (1,3,2),
  (3,3,1),
];

SEMAPHORE_SUPPLY=0;
